benchmark_str_length/p2_10_5-2.dzn
Alphabet = {A,C,G,T};
ns = 10;
nc = 5;
sl = 5;
neighbours = [| I(A),I(C),I(T),Null,Null | I(T),I(A),I(G),I(A),Null | I(C),I(T),I(A),I(C),I(A) | I(C),I(A),Null,Null,Null | I(G),Null,Null,Null,Null | I(A),Null,Null,Null,Null | I(C),Null,Null,Null,Null | I(G),I(G),I(C),I(G),I(A) | I(G),Null,Null,Null,Null | Null,Null,Null,Null,Null |];
