benchmark_str_length/p2_10_5-2.txt
{
	"num_strings": 10,
	"alphabet": "ACGT",
	"strings": [
		"ACT",
		"TAGA",
		"CTACA",
		"CA",
		"G",
		"A",
		"C",
		"GGCGA",
		"G",
		""
	],
	"str_length":[3,4,5,2,1,1,1,5,1,0]
}